
Gurobi 13.0.2 (win64) logging started Thu Jul 23 06:17:50 2026

Set parameter LogFile to value "E:\codes\ExactEBRP\results\gf_cplex_equivalent_gurobi_replica_round28\runs\stage2__high_imbalance_seed5202__c3_replica__300s\external\native_logs\R.0_lp.gurobi.log"
Gurobi Optimizer version 13.0.2 build v13.0.2rc1 (win64 - Windows 10.0 (19045.2))

CPU model: 12th Gen Intel(R) Core(TM) i7-12700KF, instruction set [SSE2|AVX|AVX2]
Thread count: 12 physical cores, 20 logical processors, using up to 1 threads

Non-default parameters:
TimeLimit  257.6988093
MIPGap  0
MIPGapAbs  0
LogToConsole  0
Threads  1

Optimize a model with 11923 rows, 3380 columns and 67164 nonzeros (Min)
Model fingerprint: 0xca828e3f
Model has 21 linear objective coefficients
Coefficient statistics:
  Matrix range     [2e-02, 2e+04]
  Objective range  [2e-02, 1e+00]
  Bounds range     [5e-01, 9e+02]
  RHS range        [5e-01, 5e+04]

Presolve removed 1599 rows and 105 columns
Presolve time: 0.04s
Presolved: 10324 rows, 3276 columns, 54460 nonzeros

Iteration    Objective       Primal Inf.    Dual Inf.      Time
       0    7.4500451e-02   4.819608e+02   0.000000e+00      0s
    3294    8.2746290e-01   0.000000e+00   0.000000e+00      0s

Solved in 3294 iterations and 0.25 seconds (0.70 work units)
Optimal objective  8.274629040e-01

User-callback calls 3452, time in user-callback 0.00 sec
